p wcnf 200 100 101 
1 -34 54 0 
1 122 -184 0 
1 -125 -188 0 
1 84 43 0 
1 188 27 0 
1 -147 153 0 
1 69 -65 0 
1 -96 -10 0 
1 -158 -120 0 
1 -84 14 0 
1 37 180 0 
1 -118 -45 0 
1 100 -129 0 
1 -82 -159 0 
1 119 168 0 
1 67 183 0 
1 87 -177 0 
1 -103 18 0 
1 192 47 0 
1 150 -168 0 
1 3 103 0 
1 -46 -10 0 
1 141 -17 0 
1 -2 196 0 
1 -134 48 0 
1 -84 -130 0 
1 167 -140 0 
1 -56 -82 0 
1 21 -181 0 
1 -111 -47 0 
1 -76 165 0 
1 -171 150 0 
1 50 -159 0 
1 -111 -26 0 
1 -11 30 0 
1 -107 100 0 
1 -194 24 0 
1 8 -58 0 
1 -185 81 0 
1 -54 190 0 
1 112 8 0 
1 -12 140 0 
1 -78 134 0 
1 -50 -23 0 
1 187 29 0 
1 -15 102 0 
1 -157 99 0 
1 26 88 0 
1 -135 32 0 
1 -197 105 0 
1 -98 -35 0 
1 -93 153 0 
1 -71 76 0 
1 -3 -141 0 
1 -99 164 0 
1 163 -98 0 
1 -68 -126 0 
1 130 -198 0 
1 -197 -63 0 
1 149 -173 0 
1 192 -19 0 
1 65 -192 0 
1 -155 178 0 
1 16 -172 0 
1 60 -113 0 
1 84 157 0 
1 -84 95 0 
1 -180 163 0 
1 -153 -151 0 
1 -14 36 0 
1 -67 62 0 
1 -188 -135 0 
1 11 -72 0 
1 49 140 0 
1 135 155 0 
1 -53 5 0 
1 -183 -30 0 
1 34 176 0 
1 136 -190 0 
1 -76 32 0 
1 129 -197 0 
1 173 106 0 
1 195 -134 0 
1 -31 112 0 
1 -124 101 0 
1 -127 159 0 
1 -178 -39 0 
1 -183 139 0 
1 137 198 0 
1 76 -31 0 
1 73 135 0 
1 -192 15 0 
1 121 -186 0 
1 -25 69 0 
1 -189 13 0 
1 -140 63 0 
1 100 13 0 
1 -187 100 0 
1 159 -78 0 
1 103 -163 0 
